NAME : CMT09H
TYPE : MVRPB
DIMENSION : 151
VEHICLES : 14
CAPACITY : 200
DISTANCE : 200
EDGE_WEIGHT_TYPE : EXACT_2D
NODE_COORD_SECTION
1 35 35
2 37 52
3 49 49
4 52 64
5 20 26
6 40 30
7 21 47
8 17 63
9 31 62
10 52 33
11 51 21
12 42 41
13 31 32
14 5 25
15 12 42
16 36 16
17 52 41
18 27 23
19 17 33
20 13 13
21 57 58
22 62 42
23 42 57
24 16 57
25 8 52
26 7 38
27 27 68
28 30 48
29 43 67
30 58 48
31 58 27
32 37 69
33 38 46
34 46 10
35 61 33
36 62 63
37 63 69
38 32 22
39 45 35
40 59 15
41 5 6
42 10 17
43 21 10
44 5 64
45 30 15
46 39 10
47 32 39
48 25 32
49 25 55
50 48 28
51 56 37
52 41 49
53 35 17
54 55 45
55 55 20
56 15 30
57 25 30
58 20 50
59 10 43
60 55 60
61 30 60
62 20 65
63 50 35
64 30 25
65 15 10
66 30 5
67 10 20
68 5 30
69 20 40
70 15 60
71 45 65
72 45 20
73 45 10
74 55 5
75 65 35
76 65 20
77 45 30
78 35 40
79 41 37
80 64 42
81 40 60
82 31 52
83 35 69
84 53 52
85 65 55
86 63 65
87 2 60
88 20 20
89 5 5
90 60 12
91 40 25
92 42 7
93 24 12
94 23 3
95 11 14
96 6 38
97 2 48
98 8 56
99 13 52
100 6 68
101 47 47
102 49 58
103 27 43
104 37 31
105 57 29
106 63 23
107 53 12
108 32 12
109 36 26
110 21 24
111 17 34
112 12 24
113 24 58
114 27 69
115 15 77
116 62 77
117 49 73
118 67 5
119 56 39
120 37 47
121 37 56
122 57 68
123 47 16
124 44 17
125 46 13
126 49 11
127 49 42
128 53 43
129 61 52
130 57 48
131 56 37
132 55 54
133 15 47
134 14 37
135 11 31
136 16 22
137 4 18
138 28 18
139 26 52
140 26 35
141 31 67
142 15 19
143 22 22
144 18 24
145 26 27
146 25 24
147 22 27
148 25 21
149 19 21
150 20 26
151 18 18
PICKUP_AND_DELIVERY_SECTION
1 0 0 10000000 0 0 0
2 0 0 10000000 10 0 7
3 0 0 10000000 10 30 0
4 0 0 10000000 10 0 16
5 0 0 10000000 10 9 0
6 0 0 10000000 10 0 21
7 0 0 10000000 10 15 0
8 0 0 10000000 10 0 19
9 0 0 10000000 10 23 0
10 0 0 10000000 10 0 11
11 0 0 10000000 10 5 0
12 0 0 10000000 10 0 19
13 0 0 10000000 10 29 0
14 0 0 10000000 10 0 23
15 0 0 10000000 10 21 0
16 0 0 10000000 10 0 10
17 0 0 10000000 10 15 0
18 0 0 10000000 10 0 3
19 0 0 10000000 10 41 0
20 0 0 10000000 10 0 9
21 0 0 10000000 10 28 0
22 0 0 10000000 10 0 8
23 0 0 10000000 10 8 0
24 0 0 10000000 10 0 16
25 0 0 10000000 10 10 0
26 0 0 10000000 10 0 28
27 0 0 10000000 10 7 0
28 0 0 10000000 10 0 15
29 0 0 10000000 10 14 0
30 0 0 10000000 10 0 6
31 0 0 10000000 10 19 0
32 0 0 10000000 10 0 11
33 0 0 10000000 10 12 0
34 0 0 10000000 10 0 23
35 0 0 10000000 10 26 0
36 0 0 10000000 10 0 17
37 0 0 10000000 10 6 0
38 0 0 10000000 10 0 9
39 0 0 10000000 10 15 0
40 0 0 10000000 10 0 14
41 0 0 10000000 10 7 0
42 0 0 10000000 10 0 27
43 0 0 10000000 10 13 0
44 0 0 10000000 10 0 11
45 0 0 10000000 10 16 0
46 0 0 10000000 10 0 10
47 0 0 10000000 10 5 0
48 0 0 10000000 10 0 25
49 0 0 10000000 10 17 0
50 0 0 10000000 10 0 18
51 0 0 10000000 10 10 0
52 0 0 10000000 10 0 10
53 0 0 10000000 10 7 0
54 0 0 10000000 10 0 13
55 0 0 10000000 10 19 0
56 0 0 10000000 10 0 26
57 0 0 10000000 10 3 0
58 0 0 10000000 10 0 5
59 0 0 10000000 10 9 0
60 0 0 10000000 10 0 16
61 0 0 10000000 10 16 0
62 0 0 10000000 10 0 12
63 0 0 10000000 10 19 0
64 0 0 10000000 10 0 23
65 0 0 10000000 10 20 0
66 0 0 10000000 10 0 8
67 0 0 10000000 10 19 0
68 0 0 10000000 10 0 2
69 0 0 10000000 10 12 0
70 0 0 10000000 10 0 17
71 0 0 10000000 10 9 0
72 0 0 10000000 10 0 11
73 0 0 10000000 10 18 0
74 0 0 10000000 10 0 29
75 0 0 10000000 10 3 0
76 0 0 10000000 10 0 6
77 0 0 10000000 10 17 0
78 0 0 10000000 10 0 16
79 0 0 10000000 10 16 0
80 0 0 10000000 10 0 9
81 0 0 10000000 10 21 0
82 0 0 10000000 10 0 27
83 0 0 10000000 10 23 0
84 0 0 10000000 10 0 11
85 0 0 10000000 10 14 0
86 0 0 10000000 10 0 8
87 0 0 10000000 10 5 0
88 0 0 10000000 10 0 8
89 0 0 10000000 10 16 0
90 0 0 10000000 10 0 31
91 0 0 10000000 10 9 0
92 0 0 10000000 10 0 5
93 0 0 10000000 10 5 0
94 0 0 10000000 10 0 7
95 0 0 10000000 10 18 0
96 0 0 10000000 10 0 16
97 0 0 10000000 10 1 0
98 0 0 10000000 10 0 27
99 0 0 10000000 10 36 0
100 0 0 10000000 10 0 30
101 0 0 10000000 10 13 0
102 0 0 10000000 10 0 10
103 0 0 10000000 10 9 0
104 0 0 10000000 10 0 14
105 0 0 10000000 10 18 0
106 0 0 10000000 10 0 2
107 0 0 10000000 10 6 0
108 0 0 10000000 10 0 7
109 0 0 10000000 10 18 0
110 0 0 10000000 10 0 28
111 0 0 10000000 10 3 0
112 0 0 10000000 10 0 13
113 0 0 10000000 10 19 0
114 0 0 10000000 10 0 10
115 0 0 10000000 10 9 0
116 0 0 10000000 10 0 20
117 0 0 10000000 10 25 0
118 0 0 10000000 10 0 25
119 0 0 10000000 10 36 0
120 0 0 10000000 10 0 6
121 0 0 10000000 10 5 0
122 0 0 10000000 10 0 15
123 0 0 10000000 10 25 0
124 0 0 10000000 10 0 9
125 0 0 10000000 10 8 0
126 0 0 10000000 10 0 18
127 0 0 10000000 10 13 0
128 0 0 10000000 10 0 14
129 0 0 10000000 10 3 0
130 0 0 10000000 10 0 23
131 0 0 10000000 10 6 0
132 0 0 10000000 10 0 26
133 0 0 10000000 10 16 0
134 0 0 10000000 10 0 11
135 0 0 10000000 10 7 0
136 0 0 10000000 10 0 41
137 0 0 10000000 10 35 0
138 0 0 10000000 10 0 26
139 0 0 10000000 10 9 0
140 0 0 10000000 10 0 15
141 0 0 10000000 10 3 0
142 0 0 10000000 10 0 1
143 0 0 10000000 10 2 0
144 0 0 10000000 10 0 22
145 0 0 10000000 10 27 0
146 0 0 10000000 10 0 20
147 0 0 10000000 10 11 0
148 0 0 10000000 10 0 12
149 0 0 10000000 10 10 0
150 0 0 10000000 10 0 9
151 0 0 10000000 10 17 0
DEPOT_SECTION
1 
-1
EOF
